NAME          
ROWS
 N  OBJ
 L  c1
 L  c2
 L  c3
 L  c4
 L  c5
COLUMNS
    MARKER    'MARKER'                 'INTORG'
    x[1]      c1        540
    x[1]      c2        675
    x[1]      c3        27
    x[1]      c4        457
    x[1]      c5        154
    x[1]      OBJ       -67
    x[2]      c1        573
    x[2]      c2        584
    x[2]      c3        916
    x[2]      c4        203
    x[2]      c5        25
    x[2]      OBJ       -837
    x[3]      c1        767
    x[3]      c2        755
    x[3]      c3        146
    x[3]      c4        186
    x[3]      c5        541
    x[3]      OBJ       -93
    x[4]      c1        338
    x[4]      c2        484
    x[4]      c3        464
    x[4]      c4        386
    x[4]      c5        798
    x[4]      OBJ       -391
    x[5]      c1        73
    x[5]      c2        665
    x[5]      c3        881
    x[5]      c4        676
    x[5]      c5        182
    x[5]      OBJ       -141
    x[6]      c1        469
    x[6]      c2        207
    x[6]      c3        702
    x[6]      c4        483
    x[6]      c5        253
    x[6]      OBJ       -86
    x[7]      c1        674
    x[7]      c2        171
    x[7]      c3        849
    x[7]      c4        916
    x[7]      c5        1
    x[7]      OBJ       -363
    x[8]      c1        807
    x[8]      c2        812
    x[8]      c3        256
    x[8]      c4        292
    x[8]      c5        67
    x[8]      OBJ       -449
    x[9]      c1        937
    x[9]      c2        223
    x[9]      c3        817
    x[9]      c4        504
    x[9]      c5        72
    x[9]      OBJ       -838
    x[10]     c1        77
    x[10]     c2        577
    x[10]     c3        349
    x[10]     c4        38
    x[10]     c5        196
    x[10]     OBJ       -982
RHS
    rhs       c1        2628
    rhs       c2        2576
    rhs       c3        2704
    rhs       c4        2070
    rhs       c5        1144
RANGES
BOUNDS
 BV bounds    x[1]
 BV bounds    x[2]
 BV bounds    x[3]
 BV bounds    x[4]
 BV bounds    x[5]
 BV bounds    x[6]
 BV bounds    x[7]
 BV bounds    x[8]
 BV bounds    x[9]
 BV bounds    x[10]
ENDATA
